p cnf 452 1621
1 0
-2 0
-3 0
-4 0
-5 0
-6 0
-7 0
-8 0
-9 0
-10 0
-11 0
-12 0
-13 0
-14 0
-15 0
-16 0
-17 0
-18 0
-19 0
-20 0
-21 0
-22 0
23 24 25 26 0
-23 -24 0
-23 -25 0
-23 -26 0
-24 -25 0
-24 -26 0
-25 -26 0
27 -1 -28 0
1 -27 -28 0
-27 -1 28 0
1 27 28 0
-23 -28 0
1 -27 -29 0
27 -1 -29 0
29 -1 -27 0
29 1 27 0
-24 29 0
-1 30 0
-27 30 0
1 27 -30 0
1 -30 -31 0
-1 30 -31 0
-1 -30 31 0
1 30 31 0
-25 31 0
27 32 0
1 32 0
-27 -1 -32 0
-1 32 -33 0
1 -32 -33 0
33 -32 -1 0
1 32 33 0
-26 -33 0
34 -2 -35 0
2 -34 -35 0
-34 -2 35 0
2 34 35 0
-23 -35 0
2 -36 -37 0
36 -2 -37 0
37 -2 -36 0
37 2 36 0
-24 37 0
-27 38 0
-34 38 0
-36 38 0
27 34 36 -38 0
2 -38 -39 0
-2 38 -39 0
-2 -38 39 0
2 38 39 0
-25 39 0
27 40 0
34 40 0
36 40 0
-27 -34 -36 -40 0
-2 40 -41 0
2 -40 -41 0
41 -40 -2 0
2 40 41 0
-26 -41 0
36 -42 -43 0
42 -36 -43 0
-36 -42 43 0
36 42 43 0
-23 -43 0
-27 42 -44 0
27 -42 -44 0
44 -42 -27 0
44 42 27 0
-24 44 0
-27 45 0
-36 45 0
27 36 -45 0
42 -45 -46 0
-42 45 -46 0
-42 -45 46 0
42 45 46 0
-25 46 0
27 47 0
36 47 0
-27 -36 -47 0
-42 47 -48 0
42 -47 -48 0
48 -47 -42 0
42 47 48 0
-26 -48 0
49 -3 -50 0
3 -49 -50 0
-49 -3 50 0
3 49 50 0
-23 -50 0
3 -51 -52 0
51 -3 -52 0
52 -3 -51 0
52 3 51 0
-24 52 0
-49 53 0
-51 53 0
-54 53 0
49 51 54 -53 0
3 -53 -55 0
-3 53 -55 0
-3 -53 55 0
3 53 55 0
-25 55 0
49 56 0
51 56 0
54 56 0
-49 -51 -54 -56 0
-3 56 -57 0
3 -56 -57 0
57 -56 -3 0
3 56 57 0
-26 -57 0
51 -58 -59 0
58 -51 -59 0
-51 -58 59 0
51 58 59 0
-23 -59 0
58 -54 -60 0
54 -58 -60 0
60 -58 -54 0
60 58 54 0
-24 60 0
58 -53 -61 0
-58 53 -61 0
-58 -53 61 0
58 53 61 0
-25 61 0
-58 56 -62 0
58 -56 -62 0
62 -56 -58 0
58 56 62 0
-26 -62 0
54 -63 -64 0
63 -54 -64 0
-54 -63 64 0
54 63 64 0
-23 -64 0
-49 63 -65 0
49 -63 -65 0
65 -63 -49 0
65 63 49 0
-24 65 0
-3 66 0
-54 66 0
3 54 -66 0
63 -66 -67 0
-63 66 -67 0
-63 -66 67 0
63 66 67 0
-25 67 0
54 68 0
3 68 0
-54 -3 -68 0
-63 68 -69 0
63 -68 -69 0
69 -68 -63 0
63 68 69 0
-26 -69 0
70 -4 -71 0
4 -70 -71 0
-70 -4 71 0
4 70 71 0
-23 -71 0
-54 4 -72 0
54 -4 -72 0
72 -4 -54 0
72 4 54 0
-24 72 0
-49 73 0
-51 73 0
-54 73 0
-70 73 0
49 51 54 70 -73 0
4 -73 -74 0
-4 73 -74 0
-4 -73 74 0
4 73 74 0
-25 74 0
49 75 0
51 75 0
54 75 0
70 75 0
-76 0
-4 75 -77 0
4 -75 -77 0
77 -75 -4 0
4 75 77 0
-26 -77 0
78 -5 -79 0
5 -78 -79 0
-78 -5 79 0
5 78 79 0
-23 -79 0
5 -80 -81 0
80 -5 -81 0
81 -5 -80 0
81 5 80 0
-24 81 0
-78 82 0
-80 82 0
-83 82 0
-84 82 0
78 80 83 84 -82 0
5 -82 -85 0
-5 82 -85 0
-5 -82 85 0
5 82 85 0
-25 85 0
78 86 0
80 86 0
83 86 0
84 86 0
-87 0
-5 86 -88 0
5 -86 -88 0
88 -86 -5 0
5 86 88 0
-26 -88 0
80 -89 -90 0
89 -80 -90 0
-80 -89 90 0
80 89 90 0
-23 -90 0
89 -83 -91 0
83 -89 -91 0
91 -89 -83 0
91 89 83 0
-24 91 0
-80 92 0
-83 92 0
-84 92 0
80 83 84 -92 0
89 -92 -93 0
-89 92 -93 0
-89 -92 93 0
89 92 93 0
-25 93 0
80 94 0
83 94 0
84 94 0
-80 -83 -84 -94 0
-89 94 -95 0
89 -94 -95 0
95 -94 -89 0
89 94 95 0
-26 -95 0
83 -6 -96 0
6 -83 -96 0
-83 -6 96 0
83 6 96 0
-23 -96 0
6 -84 -97 0
84 -6 -97 0
97 -6 -84 0
97 6 84 0
-24 97 0
-83 98 0
-84 98 0
83 84 -98 0
6 -98 -99 0
-6 98 -99 0
-6 -98 99 0
6 98 99 0
-25 99 0
83 100 0
84 100 0
-83 -84 -100 0
-6 100 -101 0
6 -100 -101 0
101 -100 -6 0
6 100 101 0
-26 -101 0
84 -102 -103 0
102 -84 -103 0
-84 -102 103 0
84 102 103 0
-23 -103 0
-83 102 -104 0
83 -102 -104 0
104 -102 -83 0
104 102 83 0
-24 104 0
-84 105 0
-6 105 0
84 6 -105 0
102 -105 -106 0
-102 105 -106 0
-102 -105 106 0
102 105 106 0
-25 106 0
84 107 0
6 107 0
-84 -6 -107 0
-102 107 -108 0
102 -107 -108 0
108 -107 -102 0
102 107 108 0
-26 -108 0
109 -7 -110 0
7 -109 -110 0
-109 -7 110 0
7 109 110 0
-23 -110 0
7 -111 -112 0
111 -7 -112 0
112 -7 -111 0
112 7 111 0
-24 112 0
-109 113 0
-111 113 0
-114 113 0
-115 113 0
-116 113 0
-117 113 0
-118 113 0
-119 113 0
120 0
7 -113 -121 0
-7 113 -121 0
-7 -113 121 0
7 113 121 0
-25 121 0
109 122 0
111 122 0
114 122 0
115 122 0
116 122 0
117 122 0
118 122 0
119 122 0
-123 0
-7 122 -124 0
7 -122 -124 0
124 -122 -7 0
7 122 124 0
-26 -124 0
111 -125 -126 0
125 -111 -126 0
-111 -125 126 0
111 125 126 0
-23 -126 0
125 -114 -127 0
114 -125 -127 0
127 -125 -114 0
127 125 114 0
-24 127 0
-111 128 0
-114 128 0
-115 128 0
-116 128 0
-117 128 0
-118 128 0
-119 128 0
129 0
125 -128 -130 0
-125 128 -130 0
-125 -128 130 0
125 128 130 0
-25 130 0
111 131 0
114 131 0
115 131 0
116 131 0
117 131 0
118 131 0
119 131 0
-132 0
-125 131 -133 0
125 -131 -133 0
133 -131 -125 0
125 131 133 0
-26 -133 0
114 -134 -135 0
134 -114 -135 0
-114 -134 135 0
114 134 135 0
-23 -135 0
134 -115 -136 0
115 -134 -136 0
136 -134 -115 0
136 134 115 0
-24 136 0
-114 137 0
-115 137 0
-116 137 0
-117 137 0
-118 137 0
-119 137 0
138 0
134 -137 -139 0
-134 137 -139 0
-134 -137 139 0
134 137 139 0
-25 139 0
114 140 0
115 140 0
116 140 0
117 140 0
118 140 0
119 140 0
-141 0
-134 140 -142 0
134 -140 -142 0
142 -140 -134 0
134 140 142 0
-26 -142 0
115 -143 -144 0
143 -115 -144 0
-115 -143 144 0
115 143 144 0
-23 -144 0
143 -116 -145 0
116 -143 -145 0
145 -143 -116 0
145 143 116 0
-24 145 0
-115 146 0
-116 146 0
-117 146 0
-118 146 0
-119 146 0
115 116 117 118 119 -146 0
143 -146 -147 0
-143 146 -147 0
-143 -146 147 0
143 146 147 0
-25 147 0
115 148 0
116 148 0
117 148 0
118 148 0
119 148 0
-149 0
-143 148 -150 0
143 -148 -150 0
150 -148 -143 0
143 148 150 0
-26 -150 0
116 -151 -152 0
151 -116 -152 0
-116 -151 152 0
116 151 152 0
-23 -152 0
151 -117 -153 0
117 -151 -153 0
153 -151 -117 0
153 151 117 0
-24 153 0
-116 154 0
-117 154 0
-118 154 0
-119 154 0
116 117 118 119 -154 0
151 -154 -155 0
-151 154 -155 0
-151 -154 155 0
151 154 155 0
-25 155 0
116 156 0
117 156 0
118 156 0
119 156 0
-157 0
-151 156 -158 0
151 -156 -158 0
158 -156 -151 0
151 156 158 0
-26 -158 0
117 -159 -160 0
159 -117 -160 0
-117 -159 160 0
117 159 160 0
-23 -160 0
159 -118 -161 0
118 -159 -161 0
161 -159 -118 0
161 159 118 0
-24 161 0
159 -154 -162 0
-159 154 -162 0
-159 -154 162 0
159 154 162 0
-25 162 0
-159 156 -163 0
159 -156 -163 0
163 -156 -159 0
159 156 163 0
-26 -163 0
118 -164 -165 0
164 -118 -165 0
-118 -164 165 0
118 164 165 0
-23 -165 0
164 -119 -166 0
119 -164 -166 0
166 -164 -119 0
166 164 119 0
-24 166 0
164 -154 -167 0
-164 154 -167 0
-164 -154 167 0
164 154 167 0
-25 167 0
-164 156 -168 0
164 -156 -168 0
168 -156 -164 0
164 156 168 0
-26 -168 0
119 -169 -170 0
169 -119 -170 0
-119 -169 170 0
119 169 170 0
-23 -170 0
-116 169 -171 0
116 -169 -171 0
171 -169 -116 0
171 169 116 0
-24 171 0
-119 172 0
-151 172 0
119 151 -172 0
169 -172 -173 0
-169 172 -173 0
-169 -172 173 0
169 172 173 0
-25 173 0
119 174 0
151 174 0
-119 -151 -174 0
-169 174 -175 0
169 -174 -175 0
175 -174 -169 0
169 174 175 0
-26 -175 0
176 -8 -177 0
8 -176 -177 0
-176 -8 177 0
8 176 177 0
-23 -177 0
8 -178 -179 0
178 -8 -179 0
179 -8 -178 0
179 8 178 0
-24 179 0
-116 180 0
-117 180 0
-118 180 0
-119 180 0
-176 180 0
-178 180 0
181 0
8 -180 -182 0
-8 180 -182 0
-8 -180 182 0
8 180 182 0
-25 182 0
116 183 0
117 183 0
118 183 0
119 183 0
176 183 0
178 183 0
-184 0
-8 183 -185 0
8 -183 -185 0
185 -183 -8 0
8 183 185 0
-26 -185 0
178 -186 -187 0
186 -178 -187 0
-178 -186 187 0
178 186 187 0
-23 -187 0
-117 186 -188 0
117 -186 -188 0
188 -186 -117 0
188 186 117 0
-24 188 0
-116 189 0
-117 189 0
-118 189 0
-119 189 0
-178 189 0
116 117 118 119 178 -189 0
186 -189 -190 0
-186 189 -190 0
-186 -189 190 0
186 189 190 0
-25 190 0
116 191 0
117 191 0
118 191 0
119 191 0
178 191 0
-192 0
-186 191 -193 0
186 -191 -193 0
193 -191 -186 0
186 191 193 0
-26 -193 0
194 -9 -195 0
9 -194 -195 0
-194 -9 195 0
9 194 195 0
-23 -195 0
9 -196 -197 0
196 -9 -197 0
197 -9 -196 0
197 9 196 0
-24 197 0
-194 198 0
-196 198 0
-199 198 0
-200 198 0
-201 198 0
-202 198 0
-203 198 0
204 0
9 -198 -205 0
-9 198 -205 0
-9 -198 205 0
9 198 205 0
-25 205 0
194 206 0
196 206 0
199 206 0
200 206 0
201 206 0
202 206 0
203 206 0
-207 0
-9 206 -208 0
9 -206 -208 0
208 -206 -9 0
9 206 208 0
-26 -208 0
196 -209 -210 0
209 -196 -210 0
-196 -209 210 0
196 209 210 0
-23 -210 0
209 -199 -211 0
199 -209 -211 0
211 -209 -199 0
211 209 199 0
-24 211 0
-196 212 0
-199 212 0
-200 212 0
-201 212 0
-202 212 0
-203 212 0
213 0
209 -212 -214 0
-209 212 -214 0
-209 -212 214 0
209 212 214 0
-25 214 0
196 215 0
199 215 0
200 215 0
201 215 0
202 215 0
203 215 0
-216 0
-209 215 -217 0
209 -215 -217 0
217 -215 -209 0
209 215 217 0
-26 -217 0
199 -218 -219 0
218 -199 -219 0
-199 -218 219 0
199 218 219 0
-23 -219 0
218 -200 -220 0
200 -218 -220 0
220 -218 -200 0
220 218 200 0
-24 220 0
-199 221 0
-200 221 0
-201 221 0
-202 221 0
-203 221 0
199 200 201 202 203 -221 0
218 -221 -222 0
-218 221 -222 0
-218 -221 222 0
218 221 222 0
-25 222 0
199 223 0
200 223 0
201 223 0
202 223 0
203 223 0
-224 0
-218 223 -225 0
218 -223 -225 0
225 -223 -218 0
218 223 225 0
-26 -225 0
200 -226 -227 0
226 -200 -227 0
-200 -226 227 0
200 226 227 0
-23 -227 0
226 -201 -228 0
201 -226 -228 0
228 -226 -201 0
228 226 201 0
-24 228 0
-200 229 0
-201 229 0
-202 229 0
-203 229 0
200 201 202 203 -229 0
226 -229 -230 0
-226 229 -230 0
-226 -229 230 0
226 229 230 0
-25 230 0
200 231 0
201 231 0
202 231 0
203 231 0
-232 0
-226 231 -233 0
226 -231 -233 0
233 -231 -226 0
226 231 233 0
-26 -233 0
201 -234 -235 0
234 -201 -235 0
-201 -234 235 0
201 234 235 0
-23 -235 0
234 -202 -236 0
202 -234 -236 0
236 -234 -202 0
236 234 202 0
-24 236 0
234 -229 -237 0
-234 229 -237 0
-234 -229 237 0
234 229 237 0
-25 237 0
-234 231 -238 0
234 -231 -238 0
238 -231 -234 0
234 231 238 0
-26 -238 0
202 -239 -240 0
239 -202 -240 0
-202 -239 240 0
202 239 240 0
-23 -240 0
239 -203 -241 0
203 -239 -241 0
241 -239 -203 0
241 239 203 0
-24 241 0
239 -229 -242 0
-239 229 -242 0
-239 -229 242 0
239 229 242 0
-25 242 0
-239 231 -243 0
239 -231 -243 0
243 -231 -239 0
239 231 243 0
-26 -243 0
203 -244 -245 0
244 -203 -245 0
-203 -244 245 0
203 244 245 0
-23 -245 0
-200 244 -246 0
200 -244 -246 0
246 -244 -200 0
246 244 200 0
-24 246 0
-203 247 0
-226 247 0
203 226 -247 0
244 -247 -248 0
-244 247 -248 0
-244 -247 248 0
244 247 248 0
-25 248 0
203 249 0
226 249 0
-203 -226 -249 0
-244 249 -250 0
244 -249 -250 0
250 -249 -244 0
244 249 250 0
-26 -250 0
251 -10 -252 0
10 -251 -252 0
-251 -10 252 0
10 251 252 0
-23 -252 0
10 -253 -254 0
253 -10 -254 0
254 -10 -253 0
254 10 253 0
-24 254 0
-251 255 0
-253 255 0
251 253 -255 0
10 -255 -256 0
-10 255 -256 0
-10 -255 256 0
10 255 256 0
-25 256 0
251 257 0
253 257 0
-251 -253 -257 0
-10 257 -258 0
10 -257 -258 0
258 -257 -10 0
10 257 258 0
-26 -258 0
253 -11 -259 0
11 -253 -259 0
-253 -11 259 0
253 11 259 0
-23 -259 0
11 -253 -260 0
253 -11 -260 0
260 -11 -253 0
260 11 253 0
-24 260 0
-253 261 0
-11 261 0
253 11 -261 0
11 -261 -262 0
-11 261 -262 0
-11 -261 262 0
11 261 262 0
-25 262 0
253 263 0
11 263 0
-253 -11 -263 0
-11 263 -264 0
11 -263 -264 0
264 -263 -11 0
11 263 264 0
-26 -264 0
265 -12 -266 0
12 -265 -266 0
-265 -12 266 0
12 265 266 0
-23 -266 0
-176 12 -267 0
176 -12 -267 0
267 -12 -176 0
267 12 176 0
-24 267 0
-116 268 0
-117 268 0
-118 268 0
-119 268 0
-176 268 0
-178 268 0
-265 268 0
269 0
12 -268 -270 0
-12 268 -270 0
-12 -268 270 0
12 268 270 0
-25 270 0
116 271 0
117 271 0
118 271 0
119 271 0
176 271 0
178 271 0
265 271 0
-272 0
-12 271 -273 0
12 -271 -273 0
273 -271 -12 0
12 271 273 0
-26 -273 0
274 -13 -275 0
13 -274 -275 0
-274 -13 275 0
13 274 275 0
-23 -275 0
13 -276 -277 0
276 -13 -277 0
277 -13 -276 0
277 13 276 0
-24 277 0
-251 278 0
-253 278 0
-274 278 0
-276 278 0
251 253 274 276 -278 0
13 -278 -279 0
-13 278 -279 0
-13 -278 279 0
13 278 279 0
-25 279 0
251 280 0
253 280 0
274 280 0
276 280 0
-281 0
-13 280 -282 0
13 -280 -282 0
282 -280 -13 0
13 280 282 0
-26 -282 0
276 -283 -284 0
283 -276 -284 0
-276 -283 284 0
276 283 284 0
-23 -284 0
-251 283 -285 0
251 -283 -285 0
285 -283 -251 0
285 283 251 0
-24 285 0
-251 286 0
-253 286 0
-276 286 0
251 253 276 -286 0
283 -286 -287 0
-283 286 -287 0
-283 -286 287 0
283 286 287 0
-25 287 0
251 288 0
253 288 0
276 288 0
-251 -253 -276 -288 0
-283 288 -289 0
283 -288 -289 0
289 -288 -283 0
283 288 289 0
-26 -289 0
290 -14 -291 0
14 -290 -291 0
-290 -14 291 0
14 290 291 0
-23 -291 0
14 -292 -293 0
292 -14 -293 0
293 -14 -292 0
293 14 292 0
-24 293 0
-200 294 0
-201 294 0
-202 294 0
-203 294 0
-290 294 0
-292 294 0
295 0
14 -294 -296 0
-14 294 -296 0
-14 -294 296 0
14 294 296 0
-25 296 0
200 297 0
201 297 0
202 297 0
203 297 0
290 297 0
292 297 0
-298 0
-14 297 -299 0
14 -297 -299 0
299 -297 -14 0
14 297 299 0
-26 -299 0
292 -300 -301 0
300 -292 -301 0
-292 -300 301 0
292 300 301 0
-23 -301 0
-201 300 -302 0
201 -300 -302 0
302 -300 -201 0
302 300 201 0
-24 302 0
-200 303 0
-201 303 0
-202 303 0
-203 303 0
-292 303 0
200 201 202 203 292 -303 0
300 -303 -304 0
-300 303 -304 0
-300 -303 304 0
300 303 304 0
-25 304 0
200 305 0
201 305 0
202 305 0
203 305 0
292 305 0
-306 0
-300 305 -307 0
300 -305 -307 0
307 -305 -300 0
300 305 307 0
-26 -307 0
308 -15 -309 0
15 -308 -309 0
-308 -15 309 0
15 308 309 0
-23 -309 0
-78 15 -310 0
78 -15 -310 0
310 -15 -78 0
310 15 78 0
-24 310 0
-78 311 0
-80 311 0
-83 311 0
-84 311 0
-308 311 0
78 80 83 84 308 -311 0
15 -311 -312 0
-15 311 -312 0
-15 -311 312 0
15 311 312 0
-25 312 0
78 313 0
80 313 0
83 313 0
84 313 0
308 313 0
-314 0
-15 313 -315 0
15 -313 -315 0
315 -313 -15 0
15 313 315 0
-26 -315 0
316 -16 -317 0
16 -316 -317 0
-316 -16 317 0
16 316 317 0
-23 -317 0
-118 16 -318 0
118 -16 -318 0
318 -16 -118 0
318 16 118 0
-24 318 0
-116 319 0
-117 319 0
-118 319 0
-119 319 0
-316 319 0
116 117 118 119 316 -319 0
16 -319 -320 0
-16 319 -320 0
-16 -319 320 0
16 319 320 0
-25 320 0
116 321 0
117 321 0
118 321 0
119 321 0
316 321 0
-322 0
-16 321 -323 0
16 -321 -323 0
323 -321 -16 0
16 321 323 0
-26 -323 0
324 -17 -325 0
17 -324 -325 0
-324 -17 325 0
17 324 325 0
-23 -325 0
17 -326 -327 0
326 -17 -327 0
327 -17 -326 0
327 17 326 0
-24 327 0
-116 328 0
-117 328 0
-118 328 0
-119 328 0
-178 328 0
-324 328 0
-326 328 0
329 0
17 -328 -330 0
-17 328 -330 0
-17 -328 330 0
17 328 330 0
-25 330 0
116 331 0
117 331 0
118 331 0
119 331 0
178 331 0
324 331 0
326 331 0
-332 0
-17 331 -333 0
17 -331 -333 0
333 -331 -17 0
17 331 333 0
-26 -333 0
326 -334 -335 0
334 -326 -335 0
-326 -334 335 0
326 334 335 0
-23 -335 0
-178 334 -336 0
178 -334 -336 0
336 -334 -178 0
336 334 178 0
-24 336 0
-116 337 0
-117 337 0
-118 337 0
-119 337 0
-178 337 0
-326 337 0
338 0
334 -337 -339 0
-334 337 -339 0
-334 -337 339 0
334 337 339 0
-25 339 0
116 340 0
117 340 0
118 340 0
119 340 0
178 340 0
326 340 0
-341 0
-334 340 -342 0
334 -340 -342 0
342 -340 -334 0
334 340 342 0
-26 -342 0
343 -18 -344 0
18 -343 -344 0
-343 -18 344 0
18 343 344 0
-23 -344 0
18 -345 -346 0
345 -18 -346 0
346 -18 -345 0
346 18 345 0
-24 346 0
-49 347 0
-51 347 0
-54 347 0
-70 347 0
-343 347 0
-345 347 0
-348 347 0
349 0
18 -347 -350 0
-18 347 -350 0
-18 -347 350 0
18 347 350 0
-25 350 0
49 351 0
51 351 0
54 351 0
70 351 0
343 351 0
345 351 0
348 351 0
-352 0
-18 351 -353 0
18 -351 -353 0
353 -351 -18 0
18 351 353 0
-26 -353 0
345 -19 -354 0
19 -345 -354 0
-345 -19 354 0
345 19 354 0
-23 -354 0
19 -348 -355 0
348 -19 -355 0
355 -19 -348 0
355 19 348 0
-24 355 0
-49 356 0
-51 356 0
-54 356 0
-70 356 0
-345 356 0
-348 356 0
49 51 54 70 345 348 -356 0
19 -356 -357 0
-19 356 -357 0
-19 -356 357 0
19 356 357 0
-25 357 0
49 358 0
51 358 0
54 358 0
70 358 0
345 358 0
348 358 0
-359 0
-19 358 -360 0
19 -358 -360 0
360 -358 -19 0
19 358 360 0
-26 -360 0
348 -361 -362 0
361 -348 -362 0
-348 -361 362 0
348 361 362 0
-23 -362 0
-70 361 -363 0
70 -361 -363 0
363 -361 -70 0
363 361 70 0
-24 363 0
-49 364 0
-51 364 0
-54 364 0
-70 364 0
-348 364 0
49 51 54 70 348 -364 0
361 -364 -365 0
-361 364 -365 0
-361 -364 365 0
361 364 365 0
-25 365 0
49 366 0
51 366 0
54 366 0
70 366 0
348 366 0
-367 0
-361 366 -368 0
361 -366 -368 0
368 -366 -361 0
361 366 368 0
-26 -368 0
369 -20 -370 0
20 -369 -370 0
-369 -20 370 0
20 369 370 0
-23 -370 0
-80 20 -371 0
80 -20 -371 0
371 -20 -80 0
371 20 80 0
-24 371 0
-80 372 0
-83 372 0
-84 372 0
-369 372 0
80 83 84 369 -372 0
20 -372 -373 0
-20 372 -373 0
-20 -372 373 0
20 372 373 0
-25 373 0
80 374 0
83 374 0
84 374 0
369 374 0
-375 0
-20 374 -376 0
20 -374 -376 0
376 -374 -20 0
20 374 376 0
-26 -376 0
377 -21 -378 0
21 -377 -378 0
-377 -21 378 0
21 377 378 0
-23 -378 0
21 -379 -380 0
379 -21 -380 0
380 -21 -379 0
380 21 379 0
-24 380 0
-377 381 0
-379 381 0
-382 381 0
-383 381 0
-384 381 0
-385 381 0
-386 381 0
387 0
21 -381 -388 0
-21 381 -388 0
-21 -381 388 0
21 381 388 0
-25 388 0
377 389 0
379 389 0
382 389 0
383 389 0
384 389 0
385 389 0
386 389 0
-390 0
-21 389 -391 0
21 -389 -391 0
391 -389 -21 0
21 389 391 0
-26 -391 0
379 -392 -393 0
392 -379 -393 0
-379 -392 393 0
379 392 393 0
-23 -393 0
392 -382 -394 0
382 -392 -394 0
394 -392 -382 0
394 392 382 0
-24 394 0
-379 395 0
-382 395 0
-383 395 0
-384 395 0
-385 395 0
-386 395 0
396 0
392 -395 -397 0
-392 395 -397 0
-392 -395 397 0
392 395 397 0
-25 397 0
379 398 0
382 398 0
383 398 0
384 398 0
385 398 0
386 398 0
-399 0
-392 398 -400 0
392 -398 -400 0
400 -398 -392 0
392 398 400 0
-26 -400 0
382 -401 -402 0
401 -382 -402 0
-382 -401 402 0
382 401 402 0
-23 -402 0
401 -383 -403 0
383 -401 -403 0
403 -401 -383 0
403 401 383 0
-24 403 0
-382 404 0
-383 404 0
-384 404 0
-385 404 0
-386 404 0
382 383 384 385 386 -404 0
401 -404 -405 0
-401 404 -405 0
-401 -404 405 0
401 404 405 0
-25 405 0
382 406 0
383 406 0
384 406 0
385 406 0
386 406 0
-407 0
-401 406 -408 0
401 -406 -408 0
408 -406 -401 0
401 406 408 0
-26 -408 0
383 -409 -410 0
409 -383 -410 0
-383 -409 410 0
383 409 410 0
-23 -410 0
409 -384 -411 0
384 -409 -411 0
411 -409 -384 0
411 409 384 0
-24 411 0
-383 412 0
-384 412 0
-385 412 0
-386 412 0
383 384 385 386 -412 0
409 -412 -413 0
-409 412 -413 0
-409 -412 413 0
409 412 413 0
-25 413 0
383 414 0
384 414 0
385 414 0
386 414 0
-415 0
-409 414 -416 0
409 -414 -416 0
416 -414 -409 0
409 414 416 0
-26 -416 0
384 -417 -418 0
417 -384 -418 0
-384 -417 418 0
384 417 418 0
-23 -418 0
417 -385 -419 0
385 -417 -419 0
419 -417 -385 0
419 417 385 0
-24 419 0
-384 420 0
-385 420 0
-386 420 0
384 385 386 -420 0
417 -420 -421 0
-417 420 -421 0
-417 -420 421 0
417 420 421 0
-25 421 0
384 422 0
385 422 0
386 422 0
-384 -385 -386 -422 0
-417 422 -423 0
417 -422 -423 0
423 -422 -417 0
417 422 423 0
-26 -423 0
385 -424 -425 0
424 -385 -425 0
-385 -424 425 0
385 424 425 0
-23 -425 0
424 -386 -426 0
386 -424 -426 0
426 -424 -386 0
426 424 386 0
-24 426 0
424 -420 -427 0
-424 420 -427 0
-424 -420 427 0
424 420 427 0
-25 427 0
-424 422 -428 0
424 -422 -428 0
428 -422 -424 0
424 422 428 0
-26 -428 0
386 -429 -430 0
429 -386 -430 0
-386 -429 430 0
386 429 430 0
-23 -430 0
-384 429 -431 0
384 -429 -431 0
431 -429 -384 0
431 429 384 0
-24 431 0
-386 432 0
-417 432 0
386 417 -432 0
429 -432 -433 0
-429 432 -433 0
-429 -432 433 0
429 432 433 0
-25 433 0
386 434 0
417 434 0
-386 -417 -434 0
-429 434 -435 0
429 -434 -435 0
435 -434 -429 0
429 434 435 0
-26 -435 0
436 -22 -437 0
22 -436 -437 0
-436 -22 437 0
22 436 437 0
-23 -437 0
22 -438 -439 0
438 -22 -439 0
439 -22 -438 0
439 22 438 0
-24 439 0
-384 440 0
-385 440 0
-386 440 0
-436 440 0
-438 440 0
384 385 386 436 438 -440 0
22 -440 -441 0
-22 440 -441 0
-22 -440 441 0
22 440 441 0
-25 441 0
384 442 0
385 442 0
386 442 0
436 442 0
438 442 0
-443 0
-22 442 -444 0
22 -442 -444 0
444 -442 -22 0
22 442 444 0
-26 -444 0
438 -445 -446 0
445 -438 -446 0
-438 -445 446 0
438 445 446 0
-23 -446 0
-385 445 -447 0
385 -445 -447 0
447 -445 -385 0
447 445 385 0
-24 447 0
-384 448 0
-385 448 0
-386 448 0
-438 448 0
384 385 386 438 -448 0
445 -448 -449 0
-445 448 -449 0
-445 -448 449 0
445 448 449 0
-25 449 0
384 450 0
385 450 0
386 450 0
438 450 0
-451 0
-445 450 -452 0
445 -450 -452 0
452 -450 -445 0
445 450 452 0
-26 -452 0
27 0
34 0
-36 0
49 0
51 0
-54 0
-70 0
-78 0
-80 0
-83 0
84 0
-109 0
-111 0
-114 0
-115 0
-116 0
-117 0
-118 0
119 0
-176 0
178 0
-194 0
196 0
-199 0
-200 0
-201 0
202 0
203 0
251 0
-253 0
265 0
274 0
-276 0
-290 0
292 0
-308 0
316 0
324 0
326 0
-343 0
-345 0
-348 0
369 0
377 0
379 0
-382 0
383 0
-384 0
385 0
-386 0
-436 0
438 0
